p cnf 17 23
-16 -11 -17 1 0
16 17 1 0
11 17 1 0
-7 -9 -14 2 0
7 14 2 0
9 14 2 0
-14 -15 -12 3 0
14 12 3 0
15 12 3 0
-9 -10 -16 4 0
9 16 4 0
10 16 4 0
-8 -16 -15 5 0
8 15 5 0
16 15 5 0
-15 -17 -13 6 0
15 13 6 0
17 13 6 0
-7 0
8 0
9 0
10 0
11 0
-12 0
-13 0